; benchmark generated from python API
(set-info :status unknown)
(declare-fun A_0 () Real)
(declare-fun S_4 () Real)
(declare-fun L_0 () Real)
(declare-fun C () Real)
(declare-fun S_0 () Real)
(declare-fun B () Real)
(declare-fun S_1 () Real)
(declare-fun S_3 () Real)
(declare-fun S_2 () Real)
(declare-fun A_1 () Real)
(declare-fun A_2 () Real)
(declare-fun A_3 () Real)
(declare-fun L_3 () Real)
(declare-fun L_1 () Real)
(declare-fun L_2 () Real)
(declare-fun A_4 () Real)
(assert
 (let (($x34 (>= L_0 0.0)))
 (let (($x605 (>= C 5.0)))
 (let (($x1620 (>= B 5.0)))
 (let (($x10416 (<= 0.0 (+ C L_0 (* (- 1.0) A_1) S_0))))
 (let (($x10421 (not $x10416)))
 (let (($x15977 (or (>= S_3 (+ A_2 (* (- 1.0) L_0))) $x10421 (<= (+ C A_1 (* (- 1.0) L_0) (* (- 1.0) S_3)) 0.0))))
 (let (($x759 (not (= L_1 L_3))))
 (let (($x10923 (<= (+ (* 2.0 C) A_1 (* (- 1.0) L_0) (* (- 1.0) S_4)) 0.0)))
 (let (($x4153 (>= S_4 (+ A_3 (* (- 1.0) L_0)))))
 (let (($x87 (<= (+ A_2 (* (- 1.0) A_1) (* (- 1.0) C)) 0.0)))
 (let ((?x1937 (* (- 1.0) L_1)))
 (let ((?x10038 (+ A_2 ?x1937 C)))
 (let (($x10185 (>= S_4 ?x10038)))
 (let (($x1686 (not (= L_1 L_2))))
 (let (($x928 (>= S_4 (+ A_3 ?x1937))))
 (let (($x15919 (or $x928 $x1686 $x10185 $x10416 (<= (+ (* 3.0 C) (* (- 1.0) S_4) S_0) 0.0))))
 (let ((?x957 (+ A_2 ?x1937)))
 (let (($x260 (>= S_3 ?x957)))
 (let (($x16079 (or $x260 (<= (+ (* 2.0 C) (* (- 1.0) S_3) S_0) 0.0) $x10416)))
 (let (($x16040 (or $x928 $x1686 $x10185 (<= (+ (* 2.0 C) (* (- 1.0) S_4) S_1) 0.0))))
 (let ((?x1890 (* (- 1.0) L_2)))
 (let ((?x1197 (+ A_3 ?x1890)))
 (let (($x1606 (>= S_4 ?x1197)))
 (let (($x9809 (<= (+ A_1 (* (- 1.0) L_0) L_3 (* (- 1.0) A_3) (* 2.0 C)) 0.0)))
 (let ((?x338 (* (- 1.0) C)))
 (let ((?x1784 (* (- 1.0) L_3)))
 (let ((?x450 (* (- 1.0) B)))
 (let ((?x9915 (+ ?x450 ?x1784 A_3 ?x338)))
 (let ((?x1827 (* (- 1.0) L_0)))
 (let ((?x734 (+ A_2 ?x1827)))
 (let (($x9410 (<= ?x734 ?x9915)))
 (let (($x2643 (= L_3 L_0)))
 (let (($x1147 (not (= L_0 L_2))))
 (let (($x10432 (= (+ (* (- 2.0) C) ?x450 ?x1784 (* (- 1.0) A_1) A_3 L_0) 0.0)))
 (let (($x16133 (or (not (<= (+ A_1 ?x1827) (+ ?x450 ?x1784 A_3 (* (- 2.0) C)))) $x10432)))
 (let (($x2704 (= L_3 L_1)))
 (let (($x1146 (not (<= L_1 L_0))))
 (let (($x10422 (or $x1146 $x1686 $x2704 $x9410 (<= S_0 (+ ?x450 ?x1784 A_3 (* (- 3.0) C))) $x10416)))
 (let ((?x448 (* (- 2.0) C)))
 (let ((?x9945 (+ ?x450 ?x1784 A_3 ?x448)))
 (let ((?x913 (+ A_1 ?x1827)))
 (let (($x9972 (<= ?x913 ?x9945)))
 (let (($x1617 (not (= L_0 L_1))))
 (let (($x572 (= L_2 L_0)))
 (let (($x15591 (or $x572 $x1617 (<= (+ A_1 ?x1827 L_2 (* (- 1.0) A_2) C) 0.0))))
 (let (($x1286 (not (= L_2 L_3))))
 (let (($x61 (= L_2 L_1)))
 (let (($x16382 (or (<= (+ A_1 ?x1827 (* (- 1.0) S_2)) 0.0) (<= (+ C (* (- 1.0) S_2) S_0) 0.0))))
 (let (($x51 (= L_1 L_0)))
 (let (($x16000 (or $x51 $x1286 (<= (+ A_3 ?x1890 (* (- 1.0) A_1) L_1 ?x448) 0.0))))
 (let ((?x118 (+ A_1 ?x1937 ?x450 C)))
 (let (($x9931 (<= (+ A_2 ?x1890) ?x118)))
 (let (($x16053 (or (not (<= ?x913 (+ ?x450 ?x1890 A_2 ?x338))) (= (+ ?x338 A_2 ?x1890 ?x450 (* (- 1.0) A_1) L_0) 0.0))))
 (let (($x9940 (not (<= A_2 (+ A_1 ?x450 C)))))
 (let (($x10013 (or $x1146 $x1686 $x2704 (<= (+ A_2 ?x1827 L_3 (* (- 1.0) A_3) C) 0.0))))
 (let ((?x9760 (+ ?x450 ?x1890 A_2 ?x338)))
 (let (($x9857 (<= ?x913 ?x9760)))
 (let (($x71 (= L_3 L_2)))
 (let (($x9859 (or $x51 $x71 (= (+ A_3 ?x1784) (+ A_1 ?x1937 (* 2.0 C))) $x9931)))
 (let (($x129 (>= S_1 S_0)))
 (let (($x132 (>= S_2 S_1)))
 (let (($x12 (>= S_3 S_2)))
 (let (($x35 (>= S_4 S_3)))
 (let (($x119 (>= A_1 A_0)))
 (let (($x120 (>= A_2 A_1)))
 (let (($x121 (>= A_3 A_2)))
 (let (($x122 (>= A_4 A_3)))
 (and $x122 $x121 $x120 $x119 $x35 $x12 $x132 $x129 (or $x71 (<= S_3 (+ A_3 ?x1784 ?x450))) (>= S_2 (+ A_1 ?x1937 ?x450)) (>= S_0 (+ ?x450 ?x1937 A_1 ?x448)) (<= (+ ?x450 ?x1937 A_1 ?x338) (+ A_0 ?x1827)) (>= S_1 (+ ?x450 ?x1937 A_1 ?x338)) (or $x51 (<= S_1 (+ A_1 ?x1937 ?x450))) (or $x51 (<= S_0 (+ ?x450 ?x1937 A_1 ?x338))) (or $x51 $x61 (= L_2 (+ A_2 (* (- 1.0) A_1) L_1 ?x338))) (>= S_4 (+ A_3 ?x1784 ?x450)) (or $x71 (not (<= L_3 L_2))) (or $x51 $x1146) (or $x71 (<= S_4 (+ A_3 ?x1784 ?x450 C))) (or $x51 (<= S_2 ?x118)) (<= S_4 (+ A_4 ?x1784)) (or $x71 (<= S_2 ?x9915)) (or (not $x87) $x61) (or $x51 $x87 $x1686) $x9859 (<= S_3 ?x1197) (<= S_4 (+ A_3 ?x1890 C)) (or $x61 (<= S_2 (+ A_2 ?x1890 ?x450))) (or $x61 (<= S_1 ?x9760)) (or $x61 (<= S_3 (+ A_2 ?x1890 ?x450 C))) (or $x61 (<= S_0 (+ ?x450 ?x1890 A_2 ?x448)) $x9857) (<= S_2 ?x957) (or (not (<= L_2 L_0)) $x572) (>= S_3 (+ A_2 ?x1890 ?x450)) (>= S_3 ?x9915) (<= (+ ?x450 ?x1890 A_2 ?x448) (+ A_0 ?x1827)) $x10013 (or $x1606 (>= S_4 (+ A_2 ?x1890 ?x450 C))) (or $x260 $x9940) (or $x2704 $x9940 (= (+ A_3 ?x1784 ?x450) ?x10038)) (or (>= S_3 ?x118) $x9931) (or $x51 (<= S_3 (+ A_1 ?x1937 ?x450 (* 2.0 C)))) (or $x51 (<= S_4 (+ A_1 ?x1937 ?x450 (* 3.0 C)))) (or $x61 $x71 (= (+ A_3 ?x1784) (+ A_2 ?x1890 C))) $x16053 (>= S_1 (+ ?x450 ?x1890 A_2 ?x448)) (or $x61 (<= S_4 (+ A_2 ?x1890 ?x450 (* 2.0 C)))) (>= S_2 ?x9760) (or $x928 $x9940 $x10185) (or $x1606 $x9931 (>= S_4 (+ A_1 ?x1937 ?x450 (* 2.0 C)))) $x16000 (>= S_0 (+ ?x450 ?x1890 A_2 (* (- 3.0) C))) $x16382 (<= (+ ?x338 L_0 S_1 (* (- 1.0) A_0)) 0.0) (<= (+ (* (- 1.0) A_1) L_0 S_1) 0.0) (or $x61 $x1286 (<= (+ A_3 (* (- 1.0) A_2) ?x338) 0.0)) $x15591 (<= (+ ?x448 S_1 (* (- 1.0) S_0)) 0.0) (>= S_2 ?x9945) (>= S_0 (+ ?x450 ?x1784 A_3 (* (- 4.0) C))) (<= (+ ?x450 ?x1784 A_3 (* (- 3.0) C)) (+ A_0 ?x1827)) (or (not $x9410) (= (+ A_3 ?x1784 ?x450) (+ A_2 ?x1827 C))) (or $x1146 $x1686 $x2704 $x9410 (<= S_1 ?x9945)) (or $x87 $x1147 $x2643 $x9972 $x10421) $x10422 $x16133 (>= S_1 (+ ?x450 ?x1784 A_3 (* (- 3.0) C))) (or $x2643 $x9410 (not $x87) $x10421) (or $x1147 $x2643 $x9410 $x9809) (or $x1606 (<= (+ C (* (- 1.0) S_4) S_2) 0.0)) (<= (+ ?x448 S_2 (* (- 1.0) S_1)) 0.0) (or $x260 (<= (+ C (* (- 1.0) S_3) S_1) 0.0)) (<= (+ ?x448 S_3 (* (- 1.0) S_2)) 0.0) (<= (+ ?x338 (* (- 1.0) A_1) L_0 S_2) 0.0) (<= S_4 (+ A_2 ?x1937 (* 2.0 C))) (<= (+ (* (- 3.0) C) S_4 (* (- 1.0) S_2)) 0.0) (<= (+ (* (- 3.0) C) (* (- 1.0) A_1) L_0 S_4) 0.0) (<= S_3 ?x10038) (<= (+ (* (- 4.0) C) S_3 (* (- 1.0) S_0)) 0.0) (<= (+ ?x448 L_0 S_2 (* (- 1.0) A_0)) 0.0) $x16040 $x16079 $x15919 (<= (+ ?x448 S_4 (* (- 1.0) S_3)) 0.0) (or $x4153 (not $x87) (>= S_4 (+ A_2 ?x1827 C)) $x10421) (or $x87 (not (<= L_3 L_0)) $x4153 $x10421 $x10923) (<= (+ ?x448 (* (- 1.0) A_1) L_0 S_3) 0.0) (or $x759 (<= (+ A_3 (* (- 1.0) A_2) ?x338) B)) (<= (+ (* (- 3.0) C) L_0 S_3 (* (- 1.0) A_0)) 0.0) $x15977 (<= (+ (* (- 5.0) C) S_4 (* (- 1.0) S_0)) 0.0) (<= (+ (* (- 3.0) C) S_2 (* (- 1.0) S_0)) 0.0) (<= (+ (* (- 3.0) C) S_3 (* (- 1.0) S_1)) 0.0) (<= (+ (* (- 4.0) C) S_4 (* (- 1.0) S_1)) 0.0) $x1620 $x605 $x34 (<= (+ L_0 S_0 (* (- 1.0) A_0)) 0.0) (<= (+ (* (- 4.0) C) L_0 S_4 (* (- 1.0) A_0)) 0.0))))))))))))))))))))))))))))))))))))))))))))))))))))))))))))))))))))))
(check-sat)
